51
12
0 12 14 18 19 20 21 24 30 33 34 35 36 38 41 42 43 45 46 47 48 49 50
1 12 15 16 17 18 20 21 26 27 28 29 30 33 34 35 36 42 45 47 48 49
2 12 13 20 21 22 23 27 30 31 33 34 36 38 42 43 45 46 48 49
3 12 15 17 20 22 23 25 27 30 31 33 34 36 37 39 45 46 47 49
4 12 13 15 18 21 22 29 36 37 39 40 41 42 46 47 48 49
5 15 17 22 23 24 26 28 29 33 35 36 37 42 45 46 47 48 49 50
6 14 17 18 22 23 24 27 30 32 34 43 48 49
7 12 13 15 16 17 18 21 22 25 29 31 35 37 39 43 45 46 47 48
8 20 24 25 27 31 34 36 37 39 47 49
9 17 21 30 31 34 35 38 44 45
10 12 13 32 40 42 46
11 23 24 29 33
